c pcminimize - minimizing a CNF with respect to propagation completeness by iterative removing of absorbed clauses.
c Petr Kucera, 2016-2021
c Version 2.7, revision 59, git hash 4910a71, date 2024-07-16 20:17:42 +0200
p cnf 681 1775
-108 -252 0
251 -252 0
252 -253 0
94 -253 0
141 -255 0
254 -255 0
255 -256 0
-94 -256 0
253 256 -257 0
257 -258 0
39 -258 0
94 -259 0
-108 -259 0
259 -260 0
251 -260 0
260 -261 0
-39 -261 0
258 261 -262 0
263 -264 0
224 -264 0
155 -265 0
-224 -265 0
264 265 -266 0
10 -267 0
268 -269 0
-10 -269 0
267 269 -270 0
262 -271 0
266 -271 0
270 -271 0
271 -272 0
76 -272 0
-94 -273 0
141 -273 0
155 -273 0
-224 -273 0
273 -274 0
254 -274 0
274 -275 0
-76 -275 0
272 275 -276 0
29 -277 0
91 -277 0
95 -277 0
127 -277 0
161 -277 0
277 -278 0
116 -278 0
29 -279 0
161 -279 0
279 -280 0
95 -280 0
29 -281 0
161 -281 0
282 -283 0
-161 -283 0
281 283 -284 0
284 -285 0
-95 -285 0
280 285 -286 0
286 -289 0
287 -289 0
288 -289 0
289 -290 0
-116 -290 0
278 290 -291 0
276 -292 0
291 -292 0
292 -294 0
293 -294 0
294 -295 0
151 -295 0
-116 -296 0
-127 -296 0
276 -297 0
286 -297 0
296 -297 0
287 -297 0
297 -298 0
-151 -298 0
295 298 -299 0
300 -301 0
231 -301 0
174 -302 0
-231 -302 0
301 302 -303 0
304 -305 0
16 -305 0
123 -306 0
-16 -306 0
305 306 -307 0
307 -308 0
128 -308 0
309 -310 0
304 -310 0
310 -311 0
-128 -311 0
308 311 -312 0
312 -313 0
313 -315 0
314 -315 0
315 -316 0
90 -316 0
307 -317 0
227 -317 0
123 -318 0
309 -318 0
318 -319 0
-227 -319 0
317 319 -320 0
320 -321 0
128 -321 0
304 -322 0
227 -322 0
123 -323 0
-227 -323 0
322 323 -324 0
324 -325 0
309 -325 0
325 -326 0
-128 -326 0
321 326 -327 0
327 -329 0
328 -329 0
329 -330 0
-90 -330 0
316 330 -331 0
332 -333 0
333 -334 0
28 -334 0
335 -336 0
336 -337 0
-28 -337 0
334 337 -338 0
56 -339 0
70 -339 0
-73 -339 0
299 -340 0
303 -340 0
331 -340 0
338 -340 0
339 -340 0
340 -341 0
-22 -342 0
111 -342 0
-113 -342 0
-122 -342 0
160 -342 0
-169 -342 0
-199 -342 0
-225 -342 0
-249 -342 0
341 -343 0
342 -343 0
343 -344 0
-177 -344 0
344 -345 0
85 -345 0
1 -346 0
5 -346 0
-9 -346 0
12 -346 0
-19 -346 0
21 -346 0
-26 -346 0
30 -346 0
-32 -346 0
36 -346 0
38 -346 0
-42 -346 0
-49 -346 0
-54 -346 0
68 -346 0
-71 -346 0
-79 -346 0
82 -346 0
-83 -346 0
93 -346 0
-104 -346 0
106 -346 0
-109 -346 0
114 -346 0
-115 -346 0
-117 -346 0
-118 -346 0
-119 -346 0
-129 -346 0
131 -346 0
-139 -346 0
-140 -346 0
-144 -346 0
-145 -346 0
-148 -346 0
149 -346 0
-152 -346 0
-153 -346 0
-156 -346 0
-163 -346 0
-181 -346 0
182 -346 0
-186 -346 0
-187 -346 0
192 -346 0
194 -346 0
-195 -346 0
-200 -346 0
-205 -346 0
211 -346 0
214 -346 0
215 -346 0
-217 -346 0
-218 -346 0
-233 -346 0
-234 -346 0
-237 -346 0
-239 -346 0
-245 -346 0
-246 -346 0
250 -346 0
347 -350 0
348 -350 0
349 -350 0
345 -351 0
346 -351 0
350 -351 0
351 -352 0
-11 -353 0
-99 -353 0
158 -353 0
176 -353 0
-202 -353 0
352 -354 0
353 -354 0
354 -355 0
-48 -355 0
355 -356 0
356 -357 0
74 -358 0
357 -359 0
358 -359 0
359 -360 0
41 -361 0
100 -361 0
360 -362 0
361 -362 0
362 -363 0
363 -364 0
27 -364 0
29 -365 0
-246 -365 0
365 -366 0
161 -366 0
29 -367 0
246 -367 0
282 -368 0
-246 -368 0
367 368 -369 0
369 -370 0
-161 -370 0
366 370 -371 0
54 -372 0
70 -372 0
-73 -372 0
-237 -372 0
371 -374 0
372 -374 0
373 -374 0
374 -375 0
245 -375 0
-22 -376 0
-54 -376 0
-70 -376 0
376 -378 0
377 -378 0
378 -379 0
73 -379 0
373 -380 0
54 -380 0
-22 -381 0
-54 -381 0
380 381 -382 0
382 -383 0
70 -383 0
-22 -384 0
-54 -384 0
384 -385 0
-70 -385 0
383 385 -386 0
386 -387 0
-237 -387 0
387 -388 0
-73 -388 0
379 388 -389 0
284 -390 0
389 -390 0
-246 -390 0
390 -391 0
-245 -391 0
375 391 -392 0
155 -393 0
217 -393 0
263 -394 0
-217 -394 0
393 394 -395 0
395 -396 0
224 -396 0
155 -398 0
397 -398 0
398 -399 0
-224 -399 0
396 399 -400 0
-9 -401 0
26 -401 0
123 -401 0
-143 -401 0
160 -401 0
-186 -401 0
192 -401 0
-199 -401 0
200 -401 0
205 -401 0
-218 -401 0
-233 -401 0
300 -403 0
402 -403 0
392 -404 0
400 -404 0
401 -404 0
403 -404 0
404 -406 0
405 -406 0
406 -407 0
56 -407 0
371 -408 0
245 -408 0
284 -409 0
-246 -409 0
409 -410 0
-245 -410 0
408 410 -411 0
26 -412 0
123 -412 0
192 -412 0
411 -413 0
412 -413 0
413 -414 0
160 -414 0
123 -415 0
26 -415 0
304 -416 0
-26 -416 0
415 416 -417 0
-245 -418 0
-246 -418 0
284 -419 0
417 -419 0
418 -419 0
419 -421 0
420 -421 0
421 -422 0
-160 -422 0
414 422 -423 0
174 -424 0
-187 -424 0
424 -425 0
199 -425 0
402 -426 0
300 -426 0
426 -427 0
-199 -427 0
425 427 -428 0
-9 -429 0
54 -429 0
70 -429 0
-73 -429 0
-237 -429 0
423 -430 0
428 -430 0
429 -430 0
430 -431 0
22 -431 0
-9 -432 0
70 -432 0
-73 -432 0
-237 -432 0
411 -433 0
432 -433 0
433 -434 0
54 -434 0
-70 -435 0
377 -435 0
435 -436 0
73 -436 0
-237 -438 0
437 -438 0
438 -439 0
-73 -439 0
436 439 -440 0
284 -441 0
440 -441 0
418 -441 0
441 -443 0
442 -443 0
443 -444 0
-54 -444 0
434 444 -445 0
445 -446 0
412 -446 0
446 -447 0
160 -447 0
432 -448 0
54 -448 0
440 -449 0
442 -449 0
449 -450 0
-54 -450 0
448 450 -451 0
284 -452 0
417 -452 0
451 -452 0
418 -452 0
452 -453 0
420 -453 0
453 -454 0
-160 -454 0
447 454 -455 0
402 -456 0
300 -456 0
455 -457 0
-199 -457 0
456 -457 0
457 -458 0
-22 -458 0
431 458 -459 0
-143 -460 0
205 -460 0
459 -461 0
395 -461 0
460 -461 0
461 -462 0
200 -462 0
395 -463 0
205 -463 0
-217 -464 0
263 -464 0
464 -465 0
-205 -465 0
463 465 -466 0
466 -467 0
-143 -467 0
467 -468 0
130 -468 0
395 -469 0
205 -469 0
469 -470 0
347 -470 0
470 -471 0
-130 -471 0
468 471 -472 0
412 -473 0
160 -473 0
417 -474 0
420 -474 0
474 -475 0
-160 -475 0
473 475 -476 0
9 -477 0
-22 -477 0
-54 -477 0
-199 -477 0
-245 -477 0
-246 -477 0
402 -478 0
300 -478 0
472 -479 0
476 -479 0
284 -479 0
440 -479 0
477 -479 0
478 -479 0
479 -480 0
-200 -480 0
462 480 -481 0
-36 -482 0
186 -482 0
218 -482 0
224 -482 0
233 -482 0
481 -483 0
482 -483 0
483 -484 0
-56 -484 0
407 484 -485 0
10 -486 0
-16 -486 0
49 -486 0
94 -486 0
-128 -486 0
-149 -486 0
156 -486 0
181 -486 0
227 -486 0
487 -491 0
488 -491 0
489 -491 0
490 -491 0
287 -491 0
485 -492 0
486 -492 0
491 -492 0
492 -493 0
-95 -494 0
104 -494 0
-108 -494 0
111 -494 0
-116 -494 0
-127 -494 0
139 -494 0
-141 -494 0
153 -494 0
-169 -494 0
493 -496 0
494 -496 0
495 -496 0
496 -497 0
129 -497 0
39 -498 0
113 -498 0
497 -499 0
498 -499 0
499 -500 0
202 -500 0
400 -502 0
501 -502 0
502 -503 0
89 -503 0
155 -504 0
-156 -504 0
217 -504 0
504 -506 0
505 -506 0
506 -507 0
-89 -507 0
503 507 -508 0
29 -509 0
54 -509 0
-161 -509 0
245 -509 0
509 -510 0
373 -510 0
510 -511 0
246 -511 0
512 -513 0
373 -513 0
513 -514 0
54 -514 0
-22 -515 0
-245 -515 0
515 -516 0
-54 -516 0
514 516 -517 0
517 -518 0
284 -518 0
518 -519 0
-246 -519 0
511 519 -520 0
-9 -521 0
10 -521 0
-16 -521 0
26 -521 0
39 -521 0
49 -521 0
56 -521 0
70 -521 0
-73 -521 0
94 -521 0
104 -521 0
-108 -521 0
113 -521 0
-116 -521 0
123 -521 0
-127 -521 0
-128 -521 0
139 -521 0
-143 -521 0
-149 -521 0
153 -521 0
160 -521 0
-169 -521 0
181 -521 0
-186 -521 0
192 -521 0
-199 -521 0
200 -521 0
205 -521 0
-218 -521 0
227 -521 0
-233 -521 0
-237 -521 0
488 -522 0
495 -522 0
489 -522 0
490 -522 0
287 -522 0
402 -522 0
487 -522 0
300 -522 0
508 -523 0
520 -523 0
521 -523 0
522 -523 0
523 -524 0
-95 -525 0
111 -525 0
-141 -525 0
524 -526 0
525 -526 0
526 -527 0
129 -527 0
36 -528 0
527 -529 0
528 -529 0
529 -530 0
-202 -530 0
500 530 -531 0
531 -533 0
532 -533 0
533 -534 0
146 -534 0
26 -535 0
123 -535 0
160 -535 0
-186 -535 0
192 -535 0
-199 -535 0
-218 -535 0
-233 -535 0
402 -536 0
300 -536 0
373 -536 0
400 -537 0
411 -537 0
535 -537 0
536 -537 0
537 -538 0
405 -538 0
538 -539 0
56 -539 0
22 -540 0
174 -540 0
-187 -540 0
540 -541 0
199 -541 0
402 -542 0
300 -542 0
373 -542 0
542 -543 0
-199 -543 0
541 543 -544 0
423 -545 0
395 -545 0
544 -545 0
482 -545 0
545 -546 0
-56 -546 0
539 546 -547 0
-9 -548 0
70 -548 0
-73 -548 0
-143 -548 0
200 -548 0
547 -549 0
548 -549 0
549 -550 0
54 -550 0
-9 -551 0
26 -551 0
123 -551 0
-143 -551 0
160 -551 0
-186 -551 0
192 -551 0
200 -551 0
-218 -551 0
-233 -551 0
400 -552 0
551 -552 0
552 -553 0
405 -553 0
553 -554 0
56 -554 0
-143 -555 0
200 -555 0
347 -556 0
-200 -556 0
555 556 -557 0
557 -558 0
9 -558 0
-143 -559 0
200 -559 0
559 -560 0
-9 -560 0
558 560 -561 0
476 -562 0
395 -562 0
561 -562 0
482 -562 0
562 -563 0
-56 -563 0
554 563 -564 0
-70 -565 0
73 -565 0
437 -566 0
-73 -566 0
565 566 -567 0
-22 -568 0
-199 -568 0
-245 -568 0
-246 -568 0
402 -569 0
300 -569 0
564 -570 0
284 -570 0
567 -570 0
568 -570 0
569 -570 0
570 -571 0
-54 -571 0
550 571 -572 0
10 -573 0
-16 -573 0
49 -573 0
94 -573 0
-108 -573 0
-128 -573 0
-149 -573 0
156 -573 0
181 -573 0
205 -573 0
227 -573 0
-237 -573 0
487 -574 0
488 -574 0
490 -574 0
489 -574 0
287 -574 0
572 -575 0
573 -575 0
574 -575 0
575 -576 0
68 -577 0
104 -577 0
111 -577 0
-116 -577 0
-127 -577 0
139 -577 0
-141 -577 0
153 -577 0
-169 -577 0
576 -578 0
577 -578 0
578 -579 0
579 -580 0
-95 -580 0
580 -581 0
129 -581 0
581 -582 0
498 -582 0
582 -583 0
202 -583 0
-9 -584 0
10 -584 0
-16 -584 0
26 -584 0
39 -584 0
49 -584 0
56 -584 0
70 -584 0
-73 -584 0
94 -584 0
104 -584 0
-108 -584 0
113 -584 0
-116 -584 0
123 -584 0
-127 -584 0
-128 -584 0
139 -584 0
-143 -584 0
-149 -584 0
153 -584 0
160 -584 0
-169 -584 0
181 -584 0
-186 -584 0
192 -584 0
-199 -584 0
200 -584 0
205 -584 0
-218 -584 0
227 -584 0
-233 -584 0
-237 -584 0
487 -585 0
488 -585 0
489 -585 0
490 -585 0
287 -585 0
402 -585 0
300 -585 0
508 -586 0
520 -586 0
584 -586 0
585 -586 0
586 -587 0
587 -588 0
588 -589 0
36 -590 0
68 -590 0
-95 -590 0
111 -590 0
129 -590 0
-141 -590 0
589 -591 0
590 -591 0
591 -592 0
-202 -592 0
583 592 -593 0
593 -594 0
594 -595 0
-146 -595 0
534 595 -596 0
85 -597 0
163 -597 0
596 -598 0
597 -598 0
598 -599 0
599 -600 0
600 -601 0
601 -603 0
602 -603 0
603 -604 0
604 -605 0
605 -606 0
189 -606 0
-116 -607 0
153 -607 0
287 -609 0
608 -609 0
411 -610 0
607 -610 0
609 -610 0
610 -611 0
139 -611 0
91 -612 0
95 -612 0
612 -614 0
613 -614 0
614 -615 0
116 -615 0
608 -616 0
287 -616 0
616 -617 0
-116 -617 0
615 617 -618 0
284 -619 0
618 -619 0
418 -619 0
619 -621 0
620 -621 0
621 -622 0
-139 -622 0
611 622 -623 0
49 -624 0
113 -624 0
623 -625 0
624 -625 0
625 -626 0
501 -626 0
626 -627 0
181 -627 0
628 -629 0
113 -629 0
-49 -630 0
-113 -630 0
629 630 -631 0
-116 -632 0
139 -632 0
153 -632 0
156 -632 0
608 -633 0
287 -633 0
411 -634 0
631 -634 0
632 -634 0
633 -634 0
634 -635 0
-181 -635 0
627 635 -636 0
-163 -637 0
149 -637 0
638 -639 0
-149 -639 0
637 639 -640 0
-9 -641 0
10 -641 0
-16 -641 0
22 -641 0
26 -641 0
36 -641 0
39 -641 0
54 -641 0
56 -641 0
70 -641 0
-73 -641 0
-85 -641 0
89 -641 0
94 -641 0
-108 -641 0
-111 -641 0
115 -641 0
123 -641 0
127 -641 0
-128 -641 0
-141 -641 0
-143 -641 0
160 -641 0
169 -641 0
174 -641 0
-187 -641 0
192 -641 0
199 -641 0
200 -641 0
-202 -641 0
205 -641 0
215 -641 0
218 -641 0
227 -641 0
233 -641 0
-237 -641 0
488 -643 0
487 -643 0
642 -643 0
636 -644 0
640 -644 0
400 -644 0
641 -644 0
643 -644 0
644 -645 0
-129 -645 0
68 -646 0
-104 -646 0
645 -647 0
646 -647 0
647 -648 0
648 -649 0
649 -650 0
650 -652 0
651 -652 0
652 -653 0
653 -654 0
654 -655 0
655 -656 0
167 -656 0
-9 -657 0
10 -657 0
-16 -657 0
22 -657 0
26 -657 0
36 -657 0
39 -657 0
54 -657 0
56 -657 0
70 -657 0
-73 -657 0
-85 -657 0
94 -657 0
-108 -657 0
-111 -657 0
115 -657 0
-116 -657 0
123 -657 0
127 -657 0
-128 -657 0
139 -657 0
-141 -657 0
-143 -657 0
153 -657 0
156 -657 0
160 -657 0
169 -657 0
174 -657 0
-181 -657 0
-187 -657 0
192 -657 0
199 -657 0
200 -657 0
-202 -657 0
205 -657 0
215 -657 0
218 -657 0
227 -657 0
233 -657 0
-237 -657 0
488 -658 0
287 -658 0
487 -658 0
642 -658 0
608 -658 0
640 -659 0
411 -659 0
631 -659 0
400 -659 0
657 -659 0
658 -659 0
659 -660 0
-129 -660 0
68 -661 0
-104 -661 0
660 -662 0
661 -662 0
662 -663 0
663 -664 0
664 -665 0
665 -666 0
666 -667 0
667 -668 0
668 -669 0
669 -671 0
670 -671 0
671 -672 0
672 -673 0
-167 -673 0
656 673 -674 0
674 -675 0
-189 -675 0
676 -677 0
-27 -677 0
678 -679 0
-2 0
3 0
4 0
7 0
8 0
13 0
14 0
15 0
18 0
-20 0
23 0
-24 0
25 0
31 0
33 0
34 0
-35 0
37 0
40 0
43 0
-44 0
45 0
46 0
-47 0
-50 0
-51 0
52 0
-53 0
-55 0
57 0
-58 0
-59 0
-60 0
61 0
62 0
63 0
64 0
65 0
-66 0
-67 0
-69 0
72 0
75 0
-77 0
-78 0
-80 0
-81 0
-84 0
-86 0
87 0
-88 0
-92 0
-96 0
97 0
-98 0
-102 0
-103 0
105 0
107 0
110 0
-112 0
120 0
121 0
124 0
-125 0
-126 0
-132 0
133 0
-134 0
-135 0
136 0
137 0
-138 0
147 0
150 0
154 0
-157 0
-159 0
162 0
164 0
165 0
-166 0
-168 0
-170 0
-171 0
172 0
-173 0
175 0
178 0
-179 0
183 0
184 0
185 0
-188 0
-190 0
191 0
193 0
196 0
-197 0
198 0
-201 0
203 0
204 0
206 0
207 0
209 0
212 0
213 0
216 0
-219 0
-220 0
221 0
222 0
226 0
-228 0
229 0
230 0
-232 0
235 0
236 0
-238 0
-240 0
-241 0
-242 0
243 0
244 0
-247 0
-248 0
-679 680 0
-165 679 0
27 677 0
-676 677 0
-675 676 0
-673 674 0
167 673 0
-671 672 0
-666 667 0
-661 662 0
-656 674 0
-653 654 0
-651 652 0
-648 649 0
-647 648 0
-646 647 0
-645 647 0
-644 645 0
111 641 657 0
-640 644 659 0
-639 640 0
-638 639 0
-637 640 0
-636 644 0
-631 634 659 0
-630 631 0
-629 631 0
-624 625 0
-623 625 0
-621 622 0
-618 619 0
-617 618 0
-616 617 0
-615 618 0
-101 613 0
-612 614 0
-610 611 0
-609 610 0
-608 609 616 633 658 0
-607 610 0
-605 606 0
-603 604 0
-600 601 0
-599 600 0
-598 599 0
-595 596 0
-591 592 0
-589 591 0
-650 652 0
-587 588 0
-586 587 0
-585 586 0
-584 586 0
-654 655 0
-583 593 0
-581 582 0
-580 581 0
-576 578 0
-575 576 0
-574 575 0
-622 623 0
-570 571 0
-566 567 0
-560 561 0
-559 560 0
-556 557 0
-555 557 0
-552 553 0
-551 552 0
-549 550 0
-546 547 0
-545 546 0
-544 545 0
-543 544 0
-541 544 0
-536 537 0
-535 537 0
-532 533 0
-528 529 0
-525 526 0
-523 524 0
-522 523 0
-521 523 0
-520 523 586 0
-519 520 0
-518 519 0
-515 516 0
-514 517 0
-628 629 0
-513 514 0
-512 513 0
-511 520 0
-510 511 0
-508 523 586 0
-507 508 0
-503 508 0
-502 503 0
-202 500 583 0
-499 500 0
-129 497 527 581 590 0
-496 497 0
-495 496 522 0
68 495 0
-619 621 0
-664 665 0
-614 615 0
-562 563 0
-569 570 0
-139 494 521 577 584 611 632 657 0
-104 494 521 577 584 0
-662 663 0
-492 493 0
-491 492 0
-663 664 0
-115 490 641 657 0
-489 491 522 574 585 0
215 489 0
-486 492 0
-567 570 0
-680 681 0
-516 517 0
-550 572 0
-181 486 521 573 584 627 0
-156 486 501 573 632 657 0
149 486 521 573 584 639 0
-597 598 0
-501 502 626 0
-558 561 0
109 346 0
-429 430 0
-194 346 0
-285 286 0
-93 346 0
-667 668 0
-375 392 0
-89 346 486 503 573 641 657 0
181 346 635 657 0
-382 383 0
83 346 0
-561 562 0
-176 353 0
-82 346 0
174 300 0
-474 475 0
79 346 0
71 346 0
-336 337 0
-68 346 495 577 590 646 661 0
42 346 0
-542 543 0
160 422 454 475 0
-452 453 0
-263 264 394 464 0
-533 534 0
-258 262 0
-540 541 0
-161 277 279 281 366 0
-604 605 0
-155 263 265 273 393 398 504 0
115 346 490 0
-649 650 0
32 346 0
-30 346 0
-497 499 0
26 346 416 0
-283 284 0
153 346 620 0
-571 572 0
-464 465 0
-432 433 448 0
-660 662 0
-5 346 0
-342 343 0
-460 461 0
-85 345 597 0
177 344 0
-376 378 0
-626 627 0
-344 345 0
-343 344 0
-108 254 0
200 346 480 556 0
-407 485 0
199 342 401 427 457 477 521 535 543 568 584 0
-111 342 494 525 577 590 0
-592 593 0
22 342 373 376 381 384 458 477 515 568 0
-490 491 522 574 585 0
-160 342 401 414 447 473 521 535 551 584 641 657 0
-451 452 0
-400 404 502 537 552 644 659 0
-341 343 0
-340 341 0
-339 340 0
-36 346 405 528 590 641 657 0
-372 374 0
-498 499 582 0
123 304 0
-205 401 460 463 469 521 573 584 641 657 0
73 339 372 388 429 432 439 521 548 566 584 641 657 0
-517 518 0
-41 361 0
-481 483 0
-56 339 407 521 539 554 584 641 657 0
-632 634 0
-338 340 0
-634 635 0
6 335 0
28 337 0
-611 623 0
-414 423 0
-613 614 0
-114 346 0
-333 334 0
-106 346 0
119 346 0
-635 636 0
-345 351 0
-577 578 0
-141 251 255 273 0
76 275 0
-331 340 0
-292 294 0
-291 292 0
-334 338 0
90 330 0
-282 283 368 0
-270 271 0
-588 589 0
141 251 494 525 577 590 641 657 0
-306 307 0
-91 277 287 612 0
-95 277 280 608 612 0
-505 506 0
187 346 402 424 540 641 657 0
-670 671 0
-534 596 0
-276 292 297 0
-302 303 0
-467 468 0
-594 595 0
-146 534 0
-275 276 0
-596 598 0
-217 393 397 504 0
-327 329 0
-290 291 0
-668 669 0
-301 303 0
-76 272 486 521 573 584 641 657 0
-479 480 0
-465 466 0
-269 270 0
-284 285 390 409 419 441 452 479 518 570 619 0
-308 312 0
189 363 675 0
-267 270 0
10 269 0
161 283 370 509 0
-234 488 0
-373 374 380 510 513 536 542 0
-305 307 0
-280 286 0
-300 301 403 426 456 478 522 536 542 569 585 0
94 256 273 0
-187 402 0
-29 277 279 281 282 365 367 509 0
-439 440 0
-180 332 0
-425 428 0
-310 311 0
-530 531 0
-259 260 0
-582 583 0
-445 446 0
-335 336 0
-620 621 0
29 282 0
-659 660 0
-538 539 0
-169 641 657 0
9 346 401 429 432 442 521 548 551 560 584 641 657 0
-293 294 0
-224 264 396 482 505 0
-442 443 449 0
-404 406 0
-281 284 0
-251 252 260 0
-274 275 0
-531 533 0
-260 261 0
-367 369 0
-527 529 0
-254 255 274 0
-418 419 441 452 619 0
202 353 530 592 641 657 0
-255 256 0
-642 643 658 0
-401 404 0
-368 369 0
-312 313 0
-365 366 0
-411 413 433 537 610 634 659 0
117 346 0
-480 481 0
-337 338 0
155 263 0
-277 278 0
-579 580 0
-131 346 0
-590 591 0
-12 346 487 0
-116 278 615 0
208 268 0
-476 479 562 0
-655 656 0
-593 594 0
-272 276 0
-652 653 0
-430 431 0
-321 327 0
-215 346 489 641 657 0
54 346 376 381 384 444 450 477 516 571 0
-385 386 0
39 261 0
-328 329 0
-261 262 0
-371 374 408 0
-319 320 0
-313 315 0
-369 370 0
-253 257 0
-415 417 0
-262 271 0
-318 319 0
-366 371 0
-398 399 0
-426 427 0
-265 266 0
-441 443 0
-279 280 0
-526 527 0
-413 414 0
-351 352 0
-252 253 0
104 346 646 661 0
95 285 494 525 580 590 608 0
-286 289 297 0
-38 346 0
224 265 273 399 505 0
169 342 494 521 577 584 0
-643 644 0
-309 310 318 325 0
-547 549 0
91 287 0
-564 570 0
-379 389 0
-601 603 0
-287 289 297 491 522 574 585 609 616 633 658 0
-506 507 0
127 288 296 494 521 577 584 0
-548 549 0
227 314 319 323 0
-288 289 0
156 346 501 504 0
-1 346 0
-396 400 0
12 487 0
116 290 296 494 521 577 584 607 617 632 657 0
-356 357 0
-487 491 522 574 585 643 658 0
-459 461 0
-294 295 0
-573 575 0
-227 314 317 322 486 521 573 584 641 657 0
249 342 0
-494 496 0
-537 538 0
-295 299 0
-469 470 0
122 342 0
-322 324 0
-330 331 0
-316 331 0
-268 269 0
-297 298 0
-296 297 0
151 298 0
-437 438 566 0
-329 330 0
16 306 309 486 521 573 584 641 657 0
-298 299 0
70 376 385 435 437 565 0
140 346 0
-266 271 0
-323 324 0
-299 340 0
-458 459 0
-324 325 0
-493 496 0
-174 300 302 424 540 641 657 0
-21 346 0
-163 597 638 0
-303 340 0
231 302 0
-504 506 0
-128 308 321 0
-408 411 0
-158 353 0
-633 634 0
-123 304 306 318 323 401 412 415 521 535 551 584 641 657 0
-572 575 0
-70 339 372 383 429 432 437 521 548 584 641 657 0
-304 305 310 322 416 0
48 355 0
-529 530 0
-416 417 0
-256 257 0
-320 321 0
-524 526 0
-410 411 0
-16 305 309 0
128 311 326 486 521 573 584 641 657 0
-94 253 259 486 521 573 584 641 657 0
-578 579 0
186 346 401 521 535 551 584 642 0
-127 277 288 641 657 0
-315 316 0
-264 266 0
-326 327 0
-674 675 0
-189 606 0
-17 328 0
118 346 0
-211 346 0
-669 671 0
-433 434 0
-218 482 641 657 0
129 346 645 660 0
-443 444 0
-250 346 0
-391 392 0
19 346 0
139 346 622 0
-602 603 0
144 346 0
-422 423 0
145 346 0
-362 363 0
148 346 0
-553 554 0
-387 388 0
-149 346 637 0
-347 350 470 556 0
-332 333 0
152 346 0
-74 358 0
-384 385 0
-182 346 0
-509 510 0
-192 346 401 412 420 521 535 551 584 641 657 0
99 353 0
195 346 0
205 346 465 0
-273 274 0
-214 346 0
217 346 394 397 464 0
218 346 401 521 535 551 584 0
-454 455 0
233 346 401 521 535 551 584 0
-477 479 0
234 346 488 0
237 346 372 377 387 429 432 438 521 573 584 641 657 0
239 346 0
-471 472 0
245 346 391 410 418 477 512 515 568 0
49 346 628 630 0
-405 406 538 553 0
246 346 365 368 390 409 418 477 519 568 0
-423 430 545 0
-665 666 0
-9 442 477 558 0
-346 351 0
-143 347 0
143 347 401 460 467 521 548 551 555 559 584 641 657 0
-483 484 0
-568 570 0
-278 291 0
-223 348 0
-289 290 0
-395 396 461 463 469 545 562 0
-307 308 317 0
-348 350 0
-142 349 0
-420 421 453 474 0
-419 421 0
-349 350 0
-350 351 0
-352 354 0
11 353 0
-625 626 0
-353 354 0
-354 355 0
-355 356 0
-657 659 0
-374 375 0
-427 428 0
-359 360 0
-360 362 0
-100 361 0
192 420 0
-539 547 0
-361 362 0
-363 364 0
-27 364 0
-317 320 0
-370 371 0
-500 531 0
-257 258 0
-417 419 452 474 0
-54 372 380 429 434 448 509 514 550 641 657 0
-22 373 431 540 641 657 0
-245 375 408 509 512 0
-237 377 0
-554 564 0
-377 378 435 0
-563 564 0
-378 379 0
-73 379 436 565 0
-380 382 0
-557 558 0
113 342 630 0
-381 382 0
-383 386 0
-246 367 511 0
-386 387 0
210 293 0
-428 430 0
-388 389 0
-565 567 0
-389 390 0
-390 391 0
-186 482 642 0
-392 404 0
-393 395 0
-394 395 0
-397 398 0
-399 400 0
-461 462 0
-325 326 0
-26 401 412 415 521 535 551 584 641 657 0
-200 401 462 521 548 551 555 559 584 641 657 0
-402 403 426 456 478 522 536 542 569 585 0
-403 404 0
36 405 482 0
-406 407 0
-409 410 0
-627 636 0
-412 413 446 473 0
-421 422 0
-424 425 0
-199 425 541 641 657 0
-431 459 0
-434 445 0
-271 272 0
-435 436 0
85 641 657 0
-436 440 0
-438 439 0
-440 441 449 479 0
89 507 0
-444 445 0
-358 359 0
-446 447 0
-447 455 0
-448 451 0
-449 450 0
-450 451 0
-453 454 0
225 342 0
-455 457 0
-456 457 0
-457 458 0
108 252 254 259 494 521 573 584 641 657 0
-462 481 0
-463 466 0
-466 467 0
-672 673 0
-314 315 0
-130 468 0
-468 472 0
-470 471 0
-658 659 0
-641 644 0
-472 479 0
-311 312 0
-473 476 0
-475 476 0
-488 491 522 574 585 643 658 0
-478 479 0
-233 482 641 657 0
-482 483 545 562 0
56 484 546 563 0
-484 485 0
-113 498 521 584 624 629 0
-485 492 0
-357 359 0
-49 486 521 573 584 624 628 0
